

******************************************************************************
This program contains Ipopt, a library for large-scale nonlinear optimization.
 Ipopt is released as open source code under the Eclipse Public License (EPL).
         For more information visit https://github.com/coin-or/Ipopt
******************************************************************************

This is Ipopt version 3.14.11, running with linear solver MUMPS 5.5.1.

Number of nonzeros in equality constraint Jacobian...:        0
Number of nonzeros in inequality constraint Jacobian.:        0
Number of nonzeros in Lagrangian Hessian.............:        6

Total number of variables............................:        4
                     variables with only lower bounds:        0
                variables with lower and upper bounds:        3
                     variables with only upper bounds:        0
Total number of equality constraints.................:        0
Total number of inequality constraints...............:        0
        inequality constraints with only lower bounds:        0
   inequality constraints with lower and upper bounds:        0
        inequality constraints with only upper bounds:        0

iter    objective    inf_pr   inf_du lg(mu)  ||d||  lg(rg) alpha_du alpha_pr  ls
   0  3.6200000e-02 0.00e+00 3.24e-01  -1.0 0.00e+00    -  0.00e+00 0.00e+00   0
   1  4.4361461e-04 0.00e+00 8.95e-02  -1.0 1.11e-01    -  9.78e-01 1.00e+00f  1
   2  1.8263074e-04 0.00e+00 3.18e-04  -1.7 1.55e-02    -  1.00e+00 1.00e+00f  1
   3  9.3149773e-08 0.00e+00 2.72e-04  -3.8 8.54e-03    -  1.00e+00 1.00e+00f  1
   4  1.8559777e-12 0.00e+00 2.01e-07  -5.7 1.68e-04    -  1.00e+00 1.00e+00f  1
   5  2.9530612e-18 0.00e+00 3.13e-12  -8.6 8.42e-07    -  1.00e+00 1.00e+00f  1

Number of Iterations....: 5

                                   (scaled)                 (unscaled)
Objective...............:   2.9530611895175608e-18    2.9530611895175608e-18
Dual infeasibility......:   3.1329438113430691e-12    3.1329438113430691e-12
Constraint violation....:   0.0000000000000000e+00    0.0000000000000000e+00
Variable bound violation:   0.0000000000000000e+00    0.0000000000000000e+00
Complementarity.........:   2.5074953412114505e-09    2.5074953412114505e-09
Overall NLP error.......:   2.5074953412114505e-09    2.5074953412114505e-09


Number of objective function evaluations             = 6
Number of objective gradient evaluations             = 6
Number of equality constraint evaluations            = 0
Number of inequality constraint evaluations          = 0
Number of equality constraint Jacobian evaluations   = 0
Number of inequality constraint Jacobian evaluations = 0
Number of Lagrangian Hessian evaluations             = 5
Total seconds in IPOPT                               = 0.004

EXIT: Optimal Solution Found.
 
Ipopt 3.14.11: Optimal Solution Found
